500
1000
266
265
265
265
265
263
263
262
261
261
260
259
259
257
257
257
255
255
255
255
255
254
254
253
252
252
251
251
251
251
248
247
247
246
246
246
246
246
245
244
243
242
242
242
242
241
240
239
239
239
237
237
237
237
237
237
237
236
236
235
235
235
235
235
234
234
232
232
232
232
230
230
230
230
229
229
229
229
228
228
227
227
227
226
225
224
224
224
223
223
223
223
223
223
222
220
220
219
219
219
218
218
218
218
217
216
216
216
215
215
214
213
213
212
211
211
210
210
209
209
209
208
205
205
204
204
203
203
201
201
201
200
199
198
198
198
197
197
197
196
196
195
195
193
193
192
192
191
191
191
191
191
190
190
187
187
187
187
186
186
185
185
185
184
184
183
183
182
182
182
182
181
181
180
180
180
179
178
178
177
176
176
174
174
174
173
173
172
172
172
171
171
171
170
170
169
168
166
166
166
166
166
165
165
165
165
165
164
163
163
162
162
161
161
160
160
159
159
159
158
157
157
157
156
156
156
155
155
155
155
155
154
154
153
153
152
150
150
149
148
148
147
146
146
146
144
143
143
143
143
143
142
141
141
141
141
140
140
140
139
136
136
135
134
132
131
131
131
130
130
130
130
129
129
129
129
128
127
126
125
123
122
122
121
121
121
120
120
119
119
119
118
118
117
117
116
115
114
114
113
113
113
112
112
111
111
111
110
110
110
110
109
109
109
108
108
107
107
107
106
105
105
105
105
104
101
100
100
100
100
99
99
99
98
97
95
95
95
94
93
92
92
92
92
91
91
90
90
89
88
88
87
87
87
87
87
86
86
86
85
85
83
83
83
83
82
82
82
80
80
79
79
78
78
78
78
77
77
77
76
76
76
75
75
75
74
74
73
72
72
71
71
71
71
70
70
69
69
68
67
65
65
65
64
63
62
62
62
61
61
61
60
59
59
59
59
58
58
58
58
57
56
56
55
55
54
53
53
53
52
52
52
51
51
50
50
50
50
49
46
46
46
45
45
45
43
43
43
41
40
40
38
37
37
37
37
36
35
33
33
32
32
32
32
32
32
32
32
31
31
31
30
30
29
28
27
26
26
26
26
24
24
23
22
22
21
21
21
21
20
20
20
19
19
19
19
18
17
17
16
